set VV := 0 1 2 3 4 5 6 7 8 9 10 11 ;
set VS := 0 1 2 3 4 5 6 7 8 9 10 11 12 13 14 15 16 17 18 19 20 21 22 23 24 25 26 27 28 ;
param cv := 
0 12
1 18
2 25
3 20
4 22
5 19
6 13
7 18
8 24
9 20
10 19
11 13
;
param cs := 
0 35
1 37
2 35
3 36
4 37
5 30
6 31
7 31
8 39
9 20
10 37
11 25
12 22
13 25
14 28
15 22
16 20
17 27
18 35
19 29
20 25
21 32
22 34
23 34
24 37
25 38
26 22
27 23
28 25
;
param bv:	 0 1 2 3 4 5 6 7 8 9 10 11 := 
		0 0 0 0 0 0 0 0 15 0 0 0 0 
		1 0 0 0 22 0 19 0 0 20 0 0 0 
		2 0 0 0 0 0 0 0 16 0 25 0 12 
		3 0 0 0 0 21 22 0 21 0 0 0 0 
		4 0 0 0 0 0 12 0 0 0 14 0 0 
		5 0 0 0 0 0 0 0 15 0 0 0 0 
		6 0 0 0 0 0 0 0 0 0 20 0 0 
		7 0 0 0 0 0 0 0 0 0 0 0 0 
		8 0 0 0 0 0 0 0 0 0 0 0 0 
		9 0 0 0 0 0 0 0 0 0 0 0 22 
		10 0 0 0 0 0 0 0 0 0 0 0 14 
		11 0 0 0 0 0 0 0 0 0 0 0 0 
;
param bs:	 0 1 2 3 4 5 6 7 8 9 10 11 12 13 14 15 16 17 18 19 20 21 22 23 24 25 26 27 28 := 
		0 0 0 30 0 0 0 28 0 0 0 0 0 35 0 0 0 0 0 0 0 0 0 0 0 0 0 0 0 0 
		1 0 0 0 0 0 0 0 0 0 0 0 0 0 26 0 0 0 0 0 21 0 0 0 0 0 0 29 0 0 
		2 30 0 0 0 0 0 37 0 0 0 0 0 0 0 0 0 0 0 0 21 0 0 0 0 0 0 0 0 0 
		3 0 0 0 0 35 0 0 0 0 0 40 0 0 26 0 0 0 0 0 0 0 0 0 0 30 0 0 0 35 
		4 0 0 0 35 0 0 0 0 0 0 0 25 0 29 0 0 0 0 0 0 0 0 0 0 0 0 0 0 0 
		5 0 0 0 0 0 0 0 34 0 0 0 0 0 0 0 0 0 0 0 38 0 0 0 0 0 0 0 0 0 
		6 28 0 37 0 0 0 0 0 0 0 0 0 0 0 21 0 0 0 0 0 0 0 0 0 0 0 0 0 0 
		7 0 0 0 0 0 34 0 0 0 0 0 0 21 0 0 0 38 0 0 0 0 40 0 36 0 0 0 0 31 
		8 0 0 0 0 0 0 0 0 0 0 0 0 0 0 0 0 0 0 0 0 0 0 0 22 0 0 22 25 0 
		9 0 0 0 0 0 0 0 0 0 0 0 20 0 0 0 0 0 30 0 0 0 0 0 0 0 0 0 0 0 
		10 0 0 0 40 0 0 0 0 0 0 0 0 0 0 0 0 0 0 0 0 0 0 0 0 0 0 26 0 0 
		11 0 0 0 0 25 0 0 0 0 20 0 0 0 0 0 0 0 0 0 0 0 0 0 0 31 0 0 0 0 
		12 35 0 0 0 0 0 0 21 0 0 0 0 0 26 0 0 0 29 35 33 0 0 0 0 30 0 37 0 0 
		13 0 26 0 26 29 0 0 0 0 0 0 0 26 0 0 0 0 0 0 21 0 0 0 0 0 0 0 0 0 
		14 0 0 0 0 0 0 21 0 0 0 0 0 0 0 0 0 0 0 0 0 0 0 0 0 0 0 0 0 0 
		15 0 0 0 0 0 0 0 0 0 0 0 0 0 0 0 0 0 0 37 0 0 0 0 0 0 0 0 0 0 
		16 0 0 0 0 0 0 0 38 0 0 0 0 0 0 0 0 0 34 0 0 0 23 34 0 0 0 0 0 0 
		17 0 0 0 0 0 0 0 0 0 30 0 0 29 0 0 0 34 0 25 0 0 0 0 0 0 0 0 0 0 
		18 0 0 0 0 0 0 0 0 0 0 0 0 35 0 0 37 0 25 0 0 0 0 0 0 0 0 0 0 0 
		19 0 21 21 0 0 38 0 0 0 0 0 0 33 21 0 0 0 0 0 0 0 0 0 0 0 0 0 0 23 
		20 0 0 0 0 0 0 0 0 0 0 0 0 0 0 0 0 0 0 0 0 0 0 0 0 0 23 0 0 0 
		21 0 0 0 0 0 0 0 40 0 0 0 0 0 0 0 0 23 0 0 0 0 0 0 20 0 0 0 0 0 
		22 0 0 0 0 0 0 0 0 0 0 0 0 0 0 0 0 34 0 0 0 0 0 0 0 0 25 0 0 0 
		23 0 0 0 0 0 0 0 36 22 0 0 0 0 0 0 0 0 0 0 0 0 20 0 0 0 0 0 0 0 
		24 0 0 0 30 0 0 0 0 0 0 0 31 30 0 0 0 0 0 0 0 0 0 0 0 0 28 0 0 0 
		25 0 0 0 0 0 0 0 0 0 0 0 0 0 0 0 0 0 0 0 0 23 0 25 0 28 0 0 0 0 
		26 0 29 0 0 0 0 0 0 22 0 26 0 37 0 0 0 0 0 0 0 0 0 0 0 0 0 0 0 0 
		27 0 0 0 0 0 0 0 0 25 0 0 0 0 0 0 0 0 0 0 0 0 0 0 0 0 0 0 0 0 
		28 0 0 0 35 0 0 0 31 0 0 0 0 0 0 0 0 0 0 0 23 0 0 0 0 0 0 0 0 0 
;
